W = 7;
H = 9;

cost = array2d(1..H,1..W,[2 | r in 1..H, c in 1..W]);
reward = [| 0,0,6,0,0,3,-100 
          | 2,0,3,0,0,6,0
          | 6,0,0,2,0,0,2
          | 0,3,0,0,-100,-100,-100
          | 0,0,0,2,0,2,-100
          | 0,0,0,3,0,0,0
          | 6,0,6,-100,0,0,3
          | 3,0,0,0,0,0,6
          | -100,2,0,6,0,2,-100
          |];


limit = 6; 
budget = 16;                  
          
